(set-logic QF_S)
(declare-fun var0 () String)
(declare-fun var1 () String)
(declare-fun var2 () String)
(declare-fun var3 () String)
(declare-fun var4 () String)
(declare-fun var5 () String)
(declare-fun var6 () String)
(declare-fun var7 () String)
(declare-fun var8 () String)
(declare-fun var9 () String)
(declare-fun var10 () String)
(declare-fun var11 () String)
(declare-fun var12 () String)
(declare-fun var13 () String)
(declare-fun var14 () String)
(declare-fun var15 () String)
(declare-fun var16 () String)
(declare-fun var17 () String)
(declare-fun var18 () String)
(declare-fun var19 () String)
(declare-fun var20 () String)
(declare-fun var21 () String)
(declare-fun var22 () String)
(declare-fun var23 () String)
(declare-fun var24 () String)
(declare-fun var25 () String)
(declare-fun var26 () String)
(declare-fun var27 () String)
(declare-fun var28 () String)
(declare-fun var29 () String)
(declare-fun var30 () String)
(declare-fun var31 () String)
(declare-fun var32 () String)
(declare-fun var33 () String)
(declare-fun var34 () String)
(declare-fun var35 () String)
(declare-fun var36 () String)
(declare-fun var37 () String)
(declare-fun var38 () String)
(declare-fun var39 () String)
(declare-fun var40 () String)
(declare-fun var41 () String)
(declare-fun var42 () String)
(declare-fun var43 () String)
(declare-fun var44 () String)
(declare-fun var45 () String)
(declare-fun var46 () String)
(declare-fun var47 () String)
(declare-fun var48 () String)
(declare-fun var49 () String)
(declare-fun var50 () String)
(declare-fun var51 () String)
(declare-fun var52 () String)
(declare-fun var53 () String)
(declare-fun var54 () String)
(declare-fun var55 () String)
(declare-fun var56 () String)
(declare-fun var57 () String)
(declare-fun var58 () String)
(declare-fun var59 () String)
(declare-fun var60 () String)
(assert (= var0 (str.++ var1 var2)))
(assert (= var2 (str.++ var3 var4)))
(assert (= var4 (str.++ var5 var6)))
(assert (= var6 (str.++ var7 var8)))
(assert (= var8 (str.++ var9 var10)))
(assert (= var10 (str.++ var11 var12)))
(assert (= var12 (str.++ var13 var14)))
(assert (= var14 (str.++ var15 var16)))
(assert (= var16 (str.++ var17 var18)))
(assert (= var18 (str.++ var19 var20)))
(assert (= var20 (str.++ var21 var22)))
(assert (= var22 (str.++ var23 var24)))
(assert (= var24 (str.++ var25 var26)))
(assert (= var26 (str.++ var27 var28)))
(assert (= var28 (str.++ var29 var30)))
(assert (= var30 (str.++ var31 var32)))
(assert (= var32 (str.++ var33 var34)))
(assert (= var34 (str.++ var35 var36)))
(assert (= var36 (str.++ var37 var38)))
(assert (= var38 (str.++ var39 var40)))
(assert (= var40 (str.++ var41 var42)))
(assert (= var42 (str.++ var43 var44)))
(assert (= var44 (str.++ var45 var46)))
(assert (= var46 (str.++ var47 var48)))
(assert (= var48 (str.++ var49 var50)))
(assert (= var50 (str.++ var51 var52)))
(assert (= var52 (str.++ var53 var54)))
(assert (= var54 (str.++ var55 var56)))
(assert (= var56 (str.++ var57 var58)))
(assert (= var58 (str.++ var59 var60)))
(assert (= var0 "solution"))
(assert (= "." (str.at var8 944)))
(assert (= "#" (str.at var31 770)))
(assert (= "g" (str.at var45 980)))
(assert (= "J" (str.at var54 435)))
(assert (= "4" (str.at var19 145)))
(assert (= "4" (str.at var6 619)))
(assert (= "b" (str.at var54 833)))
(assert (= "K" (str.at var24 643)))
(assert (= "t" (str.at var50 351)))
(assert (= "k" (str.at var35 144)))
(assert (= "%" (str.at var24 579)))
(assert (= "9" (str.at var9 912)))
(assert (= "." (str.at var44 788)))
(assert (= "<" (str.at var30 927)))
(assert (= "N" (str.at var5 449)))
(assert (= "y" (str.at var35 320)))
(assert (= "p" (str.at var50 761)))
(assert (= "d" (str.at var9 756)))
(assert (= "m" (str.at var42 876)))
(assert (= "U" (str.at var16 830)))
(assert (= "_" (str.at var43 235)))
(assert (= "f" (str.at var43 566)))
(assert (= "I" (str.at var59 253)))
(assert (= "8" (str.at var15 227)))
(assert (= "K" (str.at var23 787)))
(assert (= "c" (str.at var26 113)))
(assert (= "`" (str.at var17 32)))
(assert (= "f" (str.at var46 666)))
(assert (= "#" (str.at var17 167)))
(assert (= "+" (str.at var26 11)))
(assert (= "8" (str.at var2 903)))
(assert (= "1" (str.at var23 667)))
(assert (= "}" (str.at var27 215)))
(assert (= "8" (str.at var6 562)))
(assert (= "x" (str.at var35 58)))
(assert (= "w" (str.at var55 611)))
(assert (= "W" (str.at var9 113)))
(assert (= "T" (str.at var6 16)))
(assert (= "7" (str.at var55 445)))
(assert (= "}" (str.at var31 137)))
(assert (= "T" (str.at var45 141)))
(assert (= "\\" (str.at var54 331)))
(assert (= """" (str.at var58 114)))
(assert (= "U" (str.at var45 392)))
(assert (= "c" (str.at var35 60)))
(assert (= "-" (str.at var33 434)))
(assert (= "S" (str.at var11 100)))
(assert (= "/" (str.at var33 785)))
(assert (= "l" (str.at var56 860)))
(assert (= "q" (str.at var37 683)))
(assert (= "<" (str.at var17 955)))
(assert (= "P" (str.at var47 335)))
(assert (= "t" (str.at var43 684)))
(assert (= "D" (str.at var6 878)))
(assert (= "9" (str.at var28 445)))
(assert (= "N" (str.at var32 917)))
(assert (= "|" (str.at var26 334)))
(assert (= "a" (str.at var34 816)))
(assert (= "c" (str.at var49 537)))
(assert (= "_" (str.at var27 447)))
(assert (= "j" (str.at var1 427)))
(assert (= "<" (str.at var20 157)))
(assert (= "J" (str.at var25 314)))
(assert (= "M" (str.at var48 808)))
(assert (= "b" (str.at var27 673)))
(assert (= "%" (str.at var35 544)))
(assert (= "G" (str.at var57 515)))
(assert (= "I" (str.at var44 450)))
(assert (= "+" (str.at var6 909)))
(assert (= "j" (str.at var6 87)))
(assert (= "F" (str.at var22 351)))
(assert (= "5" (str.at var5 130)))
(assert (= "r" (str.at var20 105)))
(assert (= "!" (str.at var17 283)))
(assert (= "6" (str.at var46 946)))
(assert (= "!" (str.at var38 456)))
(assert (= "}" (str.at var8 227)))
(assert (= "8" (str.at var11 617)))
(assert (= "5" (str.at var24 173)))
(assert (= "5" (str.at var30 437)))
(assert (= ";" (str.at var30 179)))
(assert (= "B" (str.at var51 920)))
(assert (= "g" (str.at var5 644)))
(assert (= "J" (str.at var26 36)))
(assert (= "O" (str.at var40 740)))
(assert (= "Q" (str.at var10 532)))
(assert (= "b" (str.at var16 599)))
(assert (= "N" (str.at var29 351)))
(assert (= "*" (str.at var15 323)))
(assert (= "r" (str.at var14 255)))
(assert (= "l" (str.at var59 808)))
(assert (= "\\" (str.at var16 522)))
(assert (= "o" (str.at var39 921)))
(assert (= "p" (str.at var32 693)))
(assert (= "+" (str.at var23 483)))
(assert (= "B" (str.at var53 58)))
(assert (= "t" (str.at var42 432)))
(assert (= "5" (str.at var26 750)))
(assert (= """" (str.at var2 200)))
(assert (= "3" (str.at var28 967)))
(assert (= "e" (str.at var32 761)))
(assert (= "e" (str.at var28 307)))
(assert (= "F" (str.at var39 25)))
(assert (= ">" (str.at var16 16)))
(assert (= "g" (str.at var24 126)))
(assert (= "0" (str.at var41 553)))
(assert (= "\\" (str.at var16 289)))
(assert (= "c" (str.at var45 781)))
(assert (= "l" (str.at var55 531)))
(assert (= "h" (str.at var4 930)))
(assert (= "^" (str.at var24 963)))
(assert (= "K" (str.at var27 11)))
(assert (= "H" (str.at var42 77)))
(assert (= "R" (str.at var11 167)))
(assert (= "[" (str.at var4 897)))
(assert (= "8" (str.at var1 491)))
(assert (= "Q" (str.at var53 579)))
(assert (= ";" (str.at var49 782)))
(assert (= "C" (str.at var12 149)))
(assert (= "3" (str.at var51 436)))
(assert (= "3" (str.at var57 332)))
(assert (= "s" (str.at var52 51)))
(assert (= "x" (str.at var19 582)))
(assert (= ":" (str.at var30 577)))
(assert (= "N" (str.at var52 839)))
(assert (= "O" (str.at var39 268)))
(assert (= "i" (str.at var51 785)))
(assert (= "P" (str.at var37 146)))
(assert (= "O" (str.at var43 289)))
(assert (= "P" (str.at var58 337)))
(assert (= "I" (str.at var31 616)))
(assert (= "8" (str.at var49 357)))
(assert (= "Y" (str.at var14 11)))
(assert (= "N" (str.at var9 793)))
(assert (= "6" (str.at var6 241)))
(assert (= "F" (str.at var1 277)))
(assert (= "K" (str.at var29 839)))
(assert (= "A" (str.at var28 310)))
(assert (= "^" (str.at var28 667)))
(assert (= "l" (str.at var24 23)))
(assert (= "j" (str.at var40 513)))
(assert (= "e" (str.at var18 421)))
(assert (= "8" (str.at var52 803)))
(assert (= "Q" (str.at var32 317)))
(assert (= "x" (str.at var33 223)))
(assert (= "p" (str.at var15 985)))
(assert (= "4" (str.at var39 384)))
(assert (= "V" (str.at var0 384)))
(assert (= "Q" (str.at var47 193)))
(assert (= "e" (str.at var17 20)))
(assert (= "\\" (str.at var8 260)))
(assert (= "{" (str.at var27 506)))
(assert (= "L" (str.at var32 309)))
(assert (= "*" (str.at var5 223)))
(assert (= "H" (str.at var17 158)))
(assert (= "T" (str.at var7 387)))
(assert (= "8" (str.at var43 533)))
(assert (= "n" (str.at var60 950)))
(assert (= "y" (str.at var37 415)))
(assert (= "r" (str.at var4 132)))
(assert (= "f" (str.at var12 720)))
(assert (= "q" (str.at var59 312)))
(assert (= ";" (str.at var36 826)))
(assert (= ";" (str.at var36 895)))
(assert (= "C" (str.at var7 910)))
(assert (= "/" (str.at var38 44)))
(assert (= "J" (str.at var16 613)))
(assert (= "e" (str.at var40 420)))
(assert (= "b" (str.at var21 977)))
(assert (= "e" (str.at var28 502)))
(assert (= "I" (str.at var33 935)))
(assert (= "E" (str.at var51 858)))
(assert (= "&" (str.at var18 66)))
(assert (= "m" (str.at var48 261)))
(assert (= "+" (str.at var18 851)))
(assert (= "M" (str.at var40 451)))
(assert (= "P" (str.at var21 118)))
(assert (= "|" (str.at var58 347)))
(assert (= ">" (str.at var48 254)))
(assert (= "q" (str.at var9 486)))
(assert (= "T" (str.at var54 686)))
(assert (= "r" (str.at var4 314)))
(assert (= "|" (str.at var56 699)))
(assert (= "|" (str.at var57 680)))
(assert (= "Q" (str.at var25 772)))
(assert (= "+" (str.at var6 600)))
(assert (= "+" (str.at var7 491)))
(assert (= "I" (str.at var25 471)))
(assert (= "<" (str.at var18 634)))
(assert (= "L" (str.at var22 875)))
(assert (= "/" (str.at var16 467)))
(assert (= "z" (str.at var8 180)))
(assert (= "G" (str.at var40 417)))
(assert (= "5" (str.at var13 641)))
(assert (= """" (str.at var47 390)))
(assert (= "R" (str.at var48 238)))
(assert (= "O" (str.at var31 736)))
(assert (= "D" (str.at var22 813)))
(assert (= "#" (str.at var59 834)))
(assert (= "`" (str.at var13 359)))
(assert (= "u" (str.at var40 844)))
(assert (= "2" (str.at var29 201)))
(assert (= "-" (str.at var10 844)))
(assert (= "O" (str.at var1 577)))
(assert (= "y" (str.at var14 805)))
(assert (= "h" (str.at var55 338)))
(assert (= "m" (str.at var4 779)))
(assert (= "&" (str.at var47 236)))
(assert (= "d" (str.at var46 977)))
(assert (= "/" (str.at var13 908)))
(assert (= "K" (str.at var49 841)))
(assert (= "y" (str.at var49 430)))
(assert (= "S" (str.at var9 151)))
(assert (= "}" (str.at var51 460)))
(assert (= "-" (str.at var14 45)))
(assert (= "T" (str.at var20 78)))
(assert (= "b" (str.at var47 622)))
(assert (= "3" (str.at var51 317)))
(assert (= "*" (str.at var23 314)))
(assert (= "*" (str.at var57 254)))
(assert (= "S" (str.at var55 628)))
(assert (= "|" (str.at var7 477)))
(assert (= "<" (str.at var49 661)))
(assert (= "{" (str.at var30 690)))
(assert (= "0" (str.at var54 814)))
(assert (= "m" (str.at var14 374)))
(assert (= "K" (str.at var33 456)))
(assert (= "-" (str.at var34 99)))
(assert (= "m" (str.at var17 342)))
(assert (= "!" (str.at var24 964)))
(assert (= "9" (str.at var19 819)))
(assert (= "\\" (str.at var28 134)))
(assert (= "&" (str.at var5 456)))
(assert (= "K" (str.at var0 711)))
(assert (= "y" (str.at var23 808)))
(assert (= "a" (str.at var53 262)))
(assert (= "!" (str.at var19 177)))
(assert (= "2" (str.at var50 759)))
(assert (= "M" (str.at var26 598)))
(assert (= "Y" (str.at var17 721)))
(assert (= "j" (str.at var54 20)))
(assert (= "!" (str.at var8 850)))
(assert (= "0" (str.at var22 117)))
(assert (= "2" (str.at var5 704)))
(assert (= "R" (str.at var26 228)))
(assert (= """" (str.at var34 876)))
(assert (= "V" (str.at var38 538)))
(assert (= "Q" (str.at var30 378)))
(assert (= "8" (str.at var40 684)))
(assert (= "9" (str.at var11 906)))
(assert (= "R" (str.at var38 46)))
(assert (= "@" (str.at var26 577)))
(assert (= "i" (str.at var35 861)))
(assert (= "s" (str.at var42 910)))
(assert (= "(" (str.at var50 982)))
(assert (= "^" (str.at var48 372)))
(assert (= ";" (str.at var34 132)))
(assert (= "B" (str.at var44 628)))
(assert (= "+" (str.at var6 536)))
(assert (= "7" (str.at var18 280)))
(assert (= "Y" (str.at var44 32)))
(assert (= "6" (str.at var4 827)))
(assert (= "#" (str.at var11 344)))
(assert (= "@" (str.at var28 633)))
(assert (= "f" (str.at var51 284)))
(assert (= "w" (str.at var42 38)))
(assert (= "^" (str.at var57 401)))
(assert (= ";" (str.at var13 273)))
(assert (= "X" (str.at var24 52)))
(assert (= "f" (str.at var12 767)))
(assert (= "o" (str.at var25 942)))
(assert (= "x" (str.at var29 418)))
(assert (= "9" (str.at var39 808)))
(assert (= ":" (str.at var39 235)))
(assert (= "V" (str.at var52 40)))
(assert (= ";" (str.at var51 420)))
(assert (= "m" (str.at var55 437)))
(assert (= "}" (str.at var47 252)))
(assert (= "u" (str.at var10 398)))
(assert (= "(" (str.at var5 119)))
(assert (= "u" (str.at var26 868)))
(assert (= "~" (str.at var25 540)))
(assert (= "g" (str.at var57 21)))
(assert (= "Y" (str.at var60 180)))
(assert (= "v" (str.at var57 592)))
(assert (= "g" (str.at var15 585)))
(assert (= "p" (str.at var6 344)))
(assert (= "V" (str.at var30 300)))
(assert (= "Q" (str.at var0 519)))
(assert (= "Y" (str.at var13 182)))
(assert (= "q" (str.at var23 622)))
(assert (= "D" (str.at var7 934)))
(assert (= "I" (str.at var22 543)))
(assert (= "e" (str.at var0 976)))
(assert (= "v" (str.at var43 231)))
(assert (= "k" (str.at var49 43)))
(assert (= "H" (str.at var58 853)))
(assert (= "3" (str.at var14 346)))
(assert (= "8" (str.at var20 484)))
(assert (= "C" (str.at var23 185)))
(assert (= "l" (str.at var48 979)))
(assert (= "L" (str.at var38 387)))
(assert (= "%" (str.at var11 316)))
(assert (= "W" (str.at var51 160)))
(assert (= "W" (str.at var44 58)))
(assert (= "*" (str.at var53 123)))
(assert (= "D" (str.at var8 43)))
(assert (= "{" (str.at var6 555)))
(assert (= "J" (str.at var60 49)))
(assert (= "`" (str.at var7 947)))
(assert (= "2" (str.at var35 851)))
(assert (= "8" (str.at var58 810)))
(assert (= "o" (str.at var36 466)))
(assert (= ";" (str.at var25 681)))
(assert (= ")" (str.at var42 283)))
(assert (= "C" (str.at var2 165)))
(assert (= "3" (str.at var26 248)))
(assert (= "*" (str.at var28 132)))
(assert (= "?" (str.at var58 636)))
(assert (= "#" (str.at var60 91)))
(assert (= "U" (str.at var45 358)))
(assert (= "a" (str.at var10 962)))
(assert (= "u" (str.at var26 129)))
(assert (= ")" (str.at var1 91)))
(assert (= "~" (str.at var29 96)))
(assert (= "W" (str.at var59 113)))
(assert (= "^" (str.at var29 131)))
(assert (= "7" (str.at var45 405)))
(assert (= "t" (str.at var27 381)))
(assert (= """" (str.at var30 734)))
(assert (= "|" (str.at var4 218)))
(assert (= "s" (str.at var1 506)))
(assert (= "l" (str.at var43 216)))
(assert (= "w" (str.at var23 561)))
(assert (= "H" (str.at var2 829)))
(assert (= "%" (str.at var52 92)))
(assert (= "," (str.at var0 99)))
(assert (= "A" (str.at var55 927)))
(assert (= "U" (str.at var60 90)))
(assert (= "D" (str.at var58 248)))
(assert (= "8" (str.at var34 656)))
(assert (= "p" (str.at var48 685)))
(assert (= "o" (str.at var47 635)))
(assert (= "6" (str.at var31 714)))
(assert (= "I" (str.at var52 330)))
(assert (= "V" (str.at var49 86)))
(assert (= "(" (str.at var56 536)))
(assert (= "P" (str.at var27 695)))
(assert (= ">" (str.at var15 329)))
(assert (= "G" (str.at var19 737)))
(assert (= "-" (str.at var51 702)))
(assert (= "q" (str.at var32 529)))
(assert (= "?" (str.at var45 602)))
(assert (= "7" (str.at var58 774)))
(assert (= "0" (str.at var15 603)))
(assert (= "T" (str.at var1 859)))
(assert (= "=" (str.at var18 608)))
(assert (= "Z" (str.at var8 980)))
(assert (= "L" (str.at var23 889)))
(assert (= "Q" (str.at var7 789)))
(assert (= "T" (str.at var42 384)))
(assert (= "." (str.at var17 153)))
(assert (= "'" (str.at var43 750)))
(assert (= "Z" (str.at var27 960)))
(assert (= "(" (str.at var27 74)))
(assert (= "e" (str.at var27 620)))
(assert (= "m" (str.at var32 336)))
(assert (= "g" (str.at var22 215)))
(assert (= "x" (str.at var10 24)))
(assert (= "k" (str.at var44 940)))
(assert (= "u" (str.at var56 590)))
(assert (= "+" (str.at var44 129)))
(assert (= "." (str.at var35 444)))
(assert (= "I" (str.at var15 872)))
(assert (= "'" (str.at var23 773)))
(assert (= "?" (str.at var1 850)))
(assert (= "G" (str.at var10 641)))
(assert (= "V" (str.at var38 545)))
(assert (= "3" (str.at var45 820)))
(assert (= "`" (str.at var11 793)))
(assert (= "}" (str.at var25 458)))
(assert (= "I" (str.at var0 553)))
(assert (= "P" (str.at var45 581)))
(assert (= "!" (str.at var32 668)))
(assert (= "6" (str.at var53 461)))
(assert (= "Z" (str.at var10 433)))
(assert (= "F" (str.at var31 235)))
(assert (= "!" (str.at var20 627)))
(assert (= "_" (str.at var42 960)))
(assert (= "P" (str.at var46 90)))
(assert (= "O" (str.at var5 289)))
(assert (= "B" (str.at var44 459)))
(assert (= "N" (str.at var13 259)))
(assert (= "r" (str.at var15 202)))
(assert (= "Y" (str.at var28 928)))
(assert (= "6" (str.at var36 783)))
(assert (= "." (str.at var59 621)))
(assert (= "1" (str.at var27 137)))
(assert (= "|" (str.at var59 14)))
(assert (= "p" (str.at var15 623)))
(assert (= "$" (str.at var27 8)))
(assert (= "'" (str.at var59 906)))
(assert (= "I" (str.at var0 923)))
(assert (= "I" (str.at var18 908)))
(assert (= "C" (str.at var6 157)))
(assert (= "7" (str.at var47 787)))
(assert (= ">" (str.at var12 291)))
(assert (= "h" (str.at var38 898)))
(assert (= "M" (str.at var39 648)))
(assert (= "f" (str.at var6 743)))
(assert (= ")" (str.at var45 211)))
(assert (= "J" (str.at var5 492)))
(assert (= "n" (str.at var34 218)))
(assert (= "." (str.at var3 390)))
(assert (= "H" (str.at var52 548)))
(assert (= "?" (str.at var23 85)))
(assert (= "T" (str.at var55 286)))
(assert (= "/" (str.at var1 339)))
(assert (= "T" (str.at var9 757)))
(assert (= "Y" (str.at var33 281)))
(assert (= "%" (str.at var17 748)))
(assert (= "D" (str.at var49 134)))
(assert (= "1" (str.at var56 315)))
(assert (= "M" (str.at var12 86)))
(assert (= "M" (str.at var52 612)))
(assert (= "U" (str.at var33 98)))
(assert (= "P" (str.at var36 106)))
(assert (= "O" (str.at var7 618)))
(assert (= "_" (str.at var27 192)))
(assert (= "M" (str.at var57 62)))
(assert (= "$" (str.at var51 885)))
(assert (= "_" (str.at var11 471)))
(assert (= "=" (str.at var5 44)))
(assert (= "(" (str.at var7 316)))
(assert (= "<" (str.at var43 236)))
(assert (= "S" (str.at var12 355)))
(assert (= "Q" (str.at var41 416)))
(assert (= ")" (str.at var47 968)))
(assert (= "f" (str.at var47 812)))
(assert (= "1" (str.at var8 237)))
(assert (= "!" (str.at var38 713)))
(assert (= "k" (str.at var28 515)))
(assert (= "n" (str.at var52 369)))
(assert (= "(" (str.at var2 710)))
(assert (= "Y" (str.at var5 799)))
(assert (= "v" (str.at var55 846)))
(assert (= ":" (str.at var51 589)))
(assert (= ";" (str.at var5 534)))
(assert (= "#" (str.at var8 296)))
(assert (= "+" (str.at var20 498)))
(assert (= "^" (str.at var59 690)))
(assert (= ")" (str.at var7 829)))
(assert (= "/" (str.at var20 46)))
(assert (= "_" (str.at var39 334)))
(assert (= "<" (str.at var54 751)))
(assert (= "{" (str.at var15 843)))
(assert (= "t" (str.at var39 201)))
(assert (= "v" (str.at var19 886)))
(assert (= "H" (str.at var36 209)))
(assert (= "K" (str.at var26 717)))
(assert (= "!" (str.at var15 236)))
(assert (= "m" (str.at var42 702)))
(assert (= "5" (str.at var57 892)))
(assert (= "Q" (str.at var29 597)))
(assert (= "t" (str.at var7 539)))
(assert (= "L" (str.at var46 710)))
(assert (= "R" (str.at var24 977)))
(assert (= "3" (str.at var53 28)))
(assert (= "m" (str.at var35 100)))
(assert (= "!" (str.at var49 137)))
(assert (= "3" (str.at var13 221)))
(assert (= "O" (str.at var11 408)))
(assert (= "?" (str.at var45 598)))
(assert (= "I" (str.at var10 750)))
(assert (= "s" (str.at var49 336)))
(assert (= "I" (str.at var44 661)))
(assert (= "2" (str.at var16 810)))
(assert (= "8" (str.at var59 493)))
(assert (= "[" (str.at var17 142)))
(assert (= "q" (str.at var23 93)))
(assert (= "," (str.at var1 493)))
(assert (= "d" (str.at var27 373)))
(assert (= ";" (str.at var4 421)))
(assert (= "," (str.at var38 330)))
(assert (= "V" (str.at var26 153)))
(assert (= "|" (str.at var20 630)))
(assert (= "Y" (str.at var51 476)))
(assert (= "=" (str.at var14 540)))
(assert (= "F" (str.at var56 765)))
(assert (= "<" (str.at var6 613)))
(assert (= "<" (str.at var43 201)))
(assert (= "r" (str.at var1 58)))
(assert (= "Z" (str.at var9 992)))
(assert (= "E" (str.at var8 461)))
(assert (= "x" (str.at var6 91)))
(assert (= "G" (str.at var41 586)))
(assert (= "O" (str.at var22 825)))
(assert (= "G" (str.at var39 404)))
(assert (= "b" (str.at var55 126)))
(assert (= "N" (str.at var35 491)))
(assert (= "s" (str.at var35 589)))
(assert (= "=" (str.at var15 116)))
(assert (= "$" (str.at var15 77)))
(assert (= "1" (str.at var51 494)))
(assert (= "K" (str.at var36 399)))
(assert (= "G" (str.at var37 584)))
(assert (= "Y" (str.at var7 278)))
(assert (= "?" (str.at var54 694)))
(assert (= "R" (str.at var11 159)))
(assert (= "a" (str.at var7 623)))
(assert (= "p" (str.at var2 769)))
(assert (= "A" (str.at var23 431)))
(assert (= "Y" (str.at var5 753)))
(assert (= """" (str.at var44 78)))
(assert (= "!" (str.at var11 874)))
(assert (= """" (str.at var32 0)))
(assert (= "v" (str.at var33 800)))
(assert (= "-" (str.at var55 949)))
(assert (= "V" (str.at var44 356)))
(assert (= "'" (str.at var12 242)))
(assert (= ">" (str.at var52 445)))
(assert (= "+" (str.at var9 58)))
(assert (= "u" (str.at var23 6)))
(assert (= "I" (str.at var5 770)))
(assert (= "n" (str.at var28 666)))
(assert (= "w" (str.at var17 230)))
(assert (= "o" (str.at var21 344)))
(assert (= "$" (str.at var22 828)))
(assert (= "2" (str.at var23 227)))
(assert (= ">" (str.at var48 623)))
(assert (= "x" (str.at var13 83)))
(assert (= "(" (str.at var32 371)))
(assert (= "I" (str.at var46 923)))
(assert (= "W" (str.at var28 160)))
(assert (= "D" (str.at var1 984)))
(assert (= "n" (str.at var24 730)))
(assert (= "|" (str.at var53 336)))
(assert (= "9" (str.at var33 861)))
(assert (= "<" (str.at var23 340)))
(assert (= "%" (str.at var33 66)))
(assert (= "x" (str.at var16 897)))
(assert (= "7" (str.at var49 88)))
(assert (= "S" (str.at var6 460)))
(assert (= "x" (str.at var53 680)))
(assert (= "$" (str.at var31 718)))
(assert (= "T" (str.at var47 41)))
(assert (= "A" (str.at var53 878)))
(assert (= ";" (str.at var28 194)))
(assert (= "*" (str.at var33 21)))
(assert (= "1" (str.at var47 428)))
(assert (= "T" (str.at var29 901)))
(assert (= "6" (str.at var40 95)))
(assert (= "<" (str.at var28 332)))
(assert (= "]" (str.at var25 427)))
(assert (= "g" (str.at var27 360)))
(assert (= "&" (str.at var24 383)))
(assert (= "c" (str.at var50 868)))
(assert (= "g" (str.at var60 76)))
(assert (= "6" (str.at var36 331)))
(assert (= "Y" (str.at var42 994)))
(assert (= ")" (str.at var23 775)))
(assert (= "r" (str.at var10 298)))
(assert (= "k" (str.at var2 31)))
(assert (= "2" (str.at var53 31)))
(assert (= "F" (str.at var46 310)))
(assert (= "p" (str.at var41 613)))
(assert (= "p" (str.at var35 642)))
(assert (= "7" (str.at var25 779)))
(assert (= """" (str.at var19 354)))
(assert (= "N" (str.at var32 588)))
(assert (= "2" (str.at var2 241)))
(assert (= "L" (str.at var3 526)))
(assert (= "9" (str.at var6 187)))
(assert (= "!" (str.at var6 584)))
(assert (= "'" (str.at var5 345)))
(assert (= "o" (str.at var39 577)))
(assert (= "I" (str.at var49 659)))
(assert (= "u" (str.at var9 437)))
(assert (= ">" (str.at var3 875)))
(assert (= "\\" (str.at var38 692)))
(assert (= "D" (str.at var48 921)))
(assert (= "1" (str.at var37 937)))
(assert (= "f" (str.at var41 12)))
(assert (= "N" (str.at var23 101)))
(assert (= "(" (str.at var0 848)))
(assert (= "m" (str.at var56 413)))
(assert (= "f" (str.at var7 591)))
(assert (= "/" (str.at var49 360)))
(assert (= "R" (str.at var11 797)))
(assert (= "," (str.at var19 612)))
(assert (= "e" (str.at var42 663)))
(assert (= "y" (str.at var34 662)))
(assert (= "1" (str.at var43 269)))
(assert (= "n" (str.at var38 287)))
(assert (= "h" (str.at var46 59)))
(assert (= "L" (str.at var58 457)))
(assert (= "E" (str.at var45 592)))
(assert (= "," (str.at var46 745)))
(assert (= "'" (str.at var37 388)))
(assert (= "A" (str.at var51 601)))
(assert (= "s" (str.at var40 958)))
(assert (= "u" (str.at var31 821)))
(assert (= "#" (str.at var33 29)))
(assert (= "W" (str.at var30 374)))
(assert (= "#" (str.at var4 875)))
(assert (= "k" (str.at var49 239)))
(assert (= "U" (str.at var55 44)))
(assert (= "b" (str.at var51 279)))
(assert (= "h" (str.at var34 971)))
(assert (= "s" (str.at var31 749)))
(assert (= "E" (str.at var29 458)))
(assert (= "B" (str.at var40 47)))
(assert (= "i" (str.at var10 17)))
(assert (= "P" (str.at var56 673)))
(assert (= "Q" (str.at var0 850)))
(assert (= "b" (str.at var50 908)))
(assert (= "P" (str.at var33 348)))
(assert (= "$" (str.at var46 517)))
(assert (= "m" (str.at var19 519)))
(assert (= "k" (str.at var49 640)))
(assert (= "f" (str.at var29 745)))
(assert (= "(" (str.at var50 911)))
(assert (= "m" (str.at var7 138)))
(assert (= "N" (str.at var28 435)))
(assert (= "N" (str.at var37 55)))
(assert (= "V" (str.at var19 749)))
(assert (= "=" (str.at var36 429)))
(assert (= "^" (str.at var54 796)))
(assert (= "s" (str.at var52 78)))
(assert (= "N" (str.at var46 439)))
(assert (= "W" (str.at var55 519)))
(assert (= "6" (str.at var21 242)))
(assert (= "7" (str.at var26 677)))
(assert (= "+" (str.at var52 737)))
(assert (= "+" (str.at var49 493)))
(assert (= "I" (str.at var9 694)))
(assert (= """" (str.at var45 151)))
(assert (= "j" (str.at var15 618)))
(assert (= "Y" (str.at var14 817)))
(assert (= "g" (str.at var38 549)))
(assert (= "(" (str.at var42 136)))
(assert (= "[" (str.at var23 510)))
(assert (= "0" (str.at var7 797)))
(assert (= ";" (str.at var49 411)))
(assert (= "(" (str.at var32 109)))
(assert (= "W" (str.at var3 874)))
(assert (= "6" (str.at var22 342)))
(assert (= "\\" (str.at var32 116)))
(assert (= "^" (str.at var7 455)))
(assert (= ":" (str.at var10 266)))
(assert (= "!" (str.at var18 189)))
(assert (= "{" (str.at var10 223)))
(assert (= "D" (str.at var48 586)))
(assert (= "$" (str.at var32 332)))
(assert (= "#" (str.at var52 208)))
(assert (= "m" (str.at var29 428)))
(assert (= "," (str.at var58 585)))
(assert (= "n" (str.at var28 942)))
(assert (= "7" (str.at var16 556)))
(assert (= "3" (str.at var31 877)))
(assert (= "2" (str.at var43 690)))
(assert (= "I" (str.at var11 656)))
(assert (= "*" (str.at var49 663)))
(assert (= "Y" (str.at var57 417)))
(assert (= "M" (str.at var32 647)))
(assert (= "e" (str.at var0 811)))
(assert (= "{" (str.at var11 633)))
(assert (= "N" (str.at var10 720)))
(assert (= "E" (str.at var21 841)))
(assert (= "z" (str.at var38 577)))
(assert (= "%" (str.at var58 525)))
(assert (= "n" (str.at var17 799)))
(assert (= "2" (str.at var49 603)))
(assert (= ")" (str.at var8 820)))
(assert (= "C" (str.at var30 49)))
(assert (= "_" (str.at var14 470)))
(assert (= "t" (str.at var55 267)))
(assert (= "q" (str.at var24 740)))
(assert (= "r" (str.at var45 298)))
(assert (= "i" (str.at var14 806)))
(assert (= "S" (str.at var34 359)))
(check-sat)